NAME : portcgen-21-31
COMMENT : portcgen N=21, seed=31
TYPE : TSP
DIMENSION : 21
EDGE_WEIGHT_TYPE : EUC_2D
NODE_COORD_SECTION
1 -95316 128340
2 -256045 -14660
3 -75766 -210492
4 43584 96038
5 -358048 -279480
6 95961 -218126
7 257328 -214835
8 -172321 215641
9 -35953 51304
10 -425784 -161134
11 -179046 -241939
12 -175239 -74012
13 16784 -514200
14 -139083 125694
15 -39402 60508
16 -322116 254733
17 528022 166284
18 -56779 275650
19 -9201 274512
20 206849 126768
21 203202 -250293
